263854.0
2681
0 2 6 7 8 9 10 11 12 13 15 16 17 21 25 26 30 31 33 34 38 40 41 42 43 45 46 47 51 52 54 55 57 58 59 60 62 64 65 66 67 68 69 72 73 75 76 77 78 80 81 82 83 84 85 86 88 91 92 93 94 95 97 98 99 100 102 104 106 108 112 113 114 116 118 120 122 123 125 126 130 131 132 133 135 137 138 142 144 148 150 152 154 156 157 159 160 162 164 167 171 174 175 177 179 183 185 186 187 193 196 197 198 